20
587 233 220
72 49 35
75 66 47
78 30 22
119 79 79
76 65 62
119 81 65
91 77 36
113 89 27
98 59 44
76 55 43
58 51 31
94 40 25
89 66 43
119 55 50
70 43 34
76 71 56
80 58 40
79 57 46
70 68 61
93 46 39
thpack7_17